;c f501 51
;c f510 50
;c f511 49
;c f601 54
;c f610 53
;c f611 52
;c g51 31
;c g61 32
;c s512 33
;c s513 34
;c s514 36
;c s523 35
;c s524 37
;c s534 38
;c s612 39
;c s613 40
;c s614 42
;c s615 45
;c s623 41
;c s624 43
;c s625 46
;c s634 44
;c s635 47
;c s645 48
;c x51 1
;c x510 10
;c x511 11
;c x512 12
;c x513 13
;c x514 14
;c x515 15
;c x52 2
;c x53 3
;c x54 4
;c x55 5
;c x56 6
;c x57 7
;c x58 8
;c x59 9
;c x61 16
;c x610 25
;c x611 26
;c x612 27
;c x613 28
;c x614 29
;c x615 30
;c x62 17
;c x63 18
;c x64 19
;c x65 20
;c x66 21
;c x67 22
;c x68 23
;c x69 24
(set-option :produce-models true)
(set-logic NRA)
(declare-fun v1 () Bool)
(declare-fun v2 () Bool)
(declare-fun v3 () Bool)
(declare-fun v4 () Bool)
(declare-fun v5 () Bool)
(declare-fun v6 () Bool)
(declare-fun v7 () Bool)
(declare-fun v8 () Bool)
(declare-fun v9 () Bool)
(declare-fun v10 () Bool)
(declare-fun v11 () Bool)
(declare-fun v12 () Bool)
(declare-fun v13 () Bool)
(declare-fun v14 () Bool)
(declare-fun v15 () Bool)
(declare-fun v16 () Bool)
(declare-fun v17 () Bool)
(declare-fun v18 () Bool)
(declare-fun v19 () Bool)
(declare-fun v20 () Bool)
(declare-fun v21 () Bool)
(declare-fun v22 () Bool)
(declare-fun v23 () Bool)
(declare-fun v24 () Bool)
(declare-fun v25 () Bool)
(declare-fun v26 () Bool)
(declare-fun v27 () Bool)
(declare-fun v28 () Bool)
(declare-fun v29 () Bool)
(declare-fun v30 () Bool)
(declare-fun v31 () Bool)
(declare-fun v32 () Bool)
(declare-fun v33 () Bool)
(declare-fun v34 () Bool)
(declare-fun v35 () Bool)
(declare-fun v36 () Bool)
(declare-fun v37 () Bool)
(declare-fun v38 () Bool)
(declare-fun v39 () Bool)
(declare-fun v40 () Bool)
(declare-fun v41 () Bool)
(declare-fun v42 () Bool)
(declare-fun v43 () Bool)
(declare-fun v44 () Bool)
(declare-fun v45 () Bool)
(declare-fun v46 () Bool)
(declare-fun v47 () Bool)
(declare-fun v48 () Bool)
(declare-fun v49 () Bool)
(declare-fun v50 () Bool)
(declare-fun v51 () Bool)
(declare-fun v52 () Bool)
(declare-fun v53 () Bool)
(declare-fun v54 () Bool)
(assert (or (not v33) (not v1) ))
(assert (or (not v33) (not v2) ))
(assert (or (not v33) (not v3) ))
(assert (or (not v33) v4 (not v51) ))
(assert (or (not v33) (not v4) v51 ))
(assert (or (not v33) v5 (not v51) ))
(assert (or (not v33) (not v5) v51 ))
(assert (or (not v33) v6 (not v51) ))
(assert (or (not v33) (not v6) v51 ))
(assert (or (not v33) v7 (not v51) ))
(assert (or (not v33) (not v7) v51 ))
(assert (or (not v33) v8 (not v50) ))
(assert (or (not v33) (not v8) v50 ))
(assert (or (not v33) v9 (not v50) ))
(assert (or (not v33) (not v9) v50 ))
(assert (or (not v33) v10 (not v50) ))
(assert (or (not v33) (not v10) v50 ))
(assert (or (not v33) v11 (not v50) ))
(assert (or (not v33) (not v11) v50 ))
(assert (or (not v33) v12 (not v49) ))
(assert (or (not v33) (not v12) v49 ))
(assert (or (not v33) v13 (not v49) ))
(assert (or (not v33) (not v13) v49 ))
(assert (or (not v33) v14 (not v49) ))
(assert (or (not v33) (not v14) v49 ))
(assert (or (not v33) v15 (not v49) ))
(assert (or (not v33) (not v15) v49 ))
(assert (or (not v34) (not v1) ))
(assert (or (not v34) v2 (not v51) ))
(assert (or (not v34) (not v2) v51 ))
(assert (or (not v34) v3 (not v51) ))
(assert (or (not v34) (not v3) v51 ))
(assert (or (not v34) (not v4) ))
(assert (or (not v34) (not v5) ))
(assert (or (not v34) v6 (not v51) ))
(assert (or (not v34) (not v6) v51 ))
(assert (or (not v34) v7 (not v51) ))
(assert (or (not v34) (not v7) v51 ))
(assert (or (not v34) v8 (not v50) ))
(assert (or (not v34) (not v8) v50 ))
(assert (or (not v34) v9 (not v50) ))
(assert (or (not v34) (not v9) v50 ))
(assert (or (not v34) v10 (not v49) ))
(assert (or (not v34) (not v10) v49 ))
(assert (or (not v34) v11 (not v49) ))
(assert (or (not v34) (not v11) v49 ))
(assert (or (not v34) v12 (not v50) ))
(assert (or (not v34) (not v12) v50 ))
(assert (or (not v34) v13 (not v50) ))
(assert (or (not v34) (not v13) v50 ))
(assert (or (not v34) v14 (not v49) ))
(assert (or (not v34) (not v14) v49 ))
(assert (or (not v34) v15 (not v49) ))
(assert (or (not v34) (not v15) v49 ))
(assert (or (not v35) (not v1) ))
(assert (or (not v35) v2 (not v51) ))
(assert (or (not v35) (not v2) v51 ))
(assert (or (not v35) v3 (not v51) ))
(assert (or (not v35) (not v3) v51 ))
(assert (or (not v35) v4 (not v50) ))
(assert (or (not v35) (not v4) v50 ))
(assert (or (not v35) v5 (not v50) ))
(assert (or (not v35) (not v5) v50 ))
(assert (or (not v35) v6 (not v49) ))
(assert (or (not v35) (not v6) v49 ))
(assert (or (not v35) v7 (not v49) ))
(assert (or (not v35) (not v7) v49 ))
(assert (or (not v35) (not v8) ))
(assert (or (not v35) (not v9) ))
(assert (or (not v35) v10 (not v51) ))
(assert (or (not v35) (not v10) v51 ))
(assert (or (not v35) v11 (not v51) ))
(assert (or (not v35) (not v11) v51 ))
(assert (or (not v35) v12 (not v50) ))
(assert (or (not v35) (not v12) v50 ))
(assert (or (not v35) v13 (not v50) ))
(assert (or (not v35) (not v13) v50 ))
(assert (or (not v35) v14 (not v49) ))
(assert (or (not v35) (not v14) v49 ))
(assert (or (not v35) v15 (not v49) ))
(assert (or (not v35) (not v15) v49 ))
(assert (or (not v36) v1 (not v51) ))
(assert (or (not v36) (not v1) v51 ))
(assert (or (not v36) (not v2) ))
(assert (or (not v36) v3 (not v51) ))
(assert (or (not v36) (not v3) v51 ))
(assert (or (not v36) (not v4) ))
(assert (or (not v36) v5 (not v51) ))
(assert (or (not v36) (not v5) v51 ))
(assert (or (not v36) (not v6) ))
(assert (or (not v36) v7 (not v51) ))
(assert (or (not v36) (not v7) v51 ))
(assert (or (not v36) v8 (not v50) ))
(assert (or (not v36) (not v8) v50 ))
(assert (or (not v36) v9 (not v49) ))
(assert (or (not v36) (not v9) v49 ))
(assert (or (not v36) v10 (not v50) ))
(assert (or (not v36) (not v10) v50 ))
(assert (or (not v36) v11 (not v49) ))
(assert (or (not v36) (not v11) v49 ))
(assert (or (not v36) v12 (not v50) ))
(assert (or (not v36) (not v12) v50 ))
(assert (or (not v36) v13 (not v49) ))
(assert (or (not v36) (not v13) v49 ))
(assert (or (not v36) v14 (not v50) ))
(assert (or (not v36) (not v14) v50 ))
(assert (or (not v36) v15 (not v49) ))
(assert (or (not v36) (not v15) v49 ))
(assert (or (not v37) v1 (not v51) ))
(assert (or (not v37) (not v1) v51 ))
(assert (or (not v37) (not v2) ))
(assert (or (not v37) v3 (not v51) ))
(assert (or (not v37) (not v3) v51 ))
(assert (or (not v37) v4 (not v50) ))
(assert (or (not v37) (not v4) v50 ))
(assert (or (not v37) v5 (not v49) ))
(assert (or (not v37) (not v5) v49 ))
(assert (or (not v37) v6 (not v50) ))
(assert (or (not v37) (not v6) v50 ))
(assert (or (not v37) v7 (not v49) ))
(assert (or (not v37) (not v7) v49 ))
(assert (or (not v37) (not v8) ))
(assert (or (not v37) v9 (not v51) ))
(assert (or (not v37) (not v9) v51 ))
(assert (or (not v37) (not v10) ))
(assert (or (not v37) v11 (not v51) ))
(assert (or (not v37) (not v11) v51 ))
(assert (or (not v37) v12 (not v50) ))
(assert (or (not v37) (not v12) v50 ))
(assert (or (not v37) v13 (not v49) ))
(assert (or (not v37) (not v13) v49 ))
(assert (or (not v37) v14 (not v50) ))
(assert (or (not v37) (not v14) v50 ))
(assert (or (not v37) v15 (not v49) ))
(assert (or (not v37) (not v15) v49 ))
(assert (or (not v38) v1 (not v51) ))
(assert (or (not v38) (not v1) v51 ))
(assert (or (not v38) v2 (not v50) ))
(assert (or (not v38) (not v2) v50 ))
(assert (or (not v38) v3 (not v49) ))
(assert (or (not v38) (not v3) v49 ))
(assert (or (not v38) (not v4) ))
(assert (or (not v38) v5 (not v51) ))
(assert (or (not v38) (not v5) v51 ))
(assert (or (not v38) v6 (not v50) ))
(assert (or (not v38) (not v6) v50 ))
(assert (or (not v38) v7 (not v49) ))
(assert (or (not v38) (not v7) v49 ))
(assert (or (not v38) (not v8) ))
(assert (or (not v38) v9 (not v51) ))
(assert (or (not v38) (not v9) v51 ))
(assert (or (not v38) v10 (not v50) ))
(assert (or (not v38) (not v10) v50 ))
(assert (or (not v38) v11 (not v49) ))
(assert (or (not v38) (not v11) v49 ))
(assert (or (not v38) (not v12) ))
(assert (or (not v38) v13 (not v51) ))
(assert (or (not v38) (not v13) v51 ))
(assert (or (not v38) v14 (not v50) ))
(assert (or (not v38) (not v14) v50 ))
(assert (or (not v38) v15 (not v49) ))
(assert (or (not v38) (not v15) v49 ))
(assert (or (not v39) (not v16) ))
(assert (or (not v39) (not v17) ))
(assert (or (not v39) (not v18) ))
(assert (or (not v39) v19 (not v54) ))
(assert (or (not v39) (not v19) v54 ))
(assert (or (not v39) v20 (not v54) ))
(assert (or (not v39) (not v20) v54 ))
(assert (or (not v39) v21 (not v54) ))
(assert (or (not v39) (not v21) v54 ))
(assert (or (not v39) v22 (not v54) ))
(assert (or (not v39) (not v22) v54 ))
(assert (or (not v39) v23 (not v53) ))
(assert (or (not v39) (not v23) v53 ))
(assert (or (not v39) v24 (not v53) ))
(assert (or (not v39) (not v24) v53 ))
(assert (or (not v39) v25 (not v53) ))
(assert (or (not v39) (not v25) v53 ))
(assert (or (not v39) v26 (not v53) ))
(assert (or (not v39) (not v26) v53 ))
(assert (or (not v39) v27 (not v52) ))
(assert (or (not v39) (not v27) v52 ))
(assert (or (not v39) v28 (not v52) ))
(assert (or (not v39) (not v28) v52 ))
(assert (or (not v39) v29 (not v52) ))
(assert (or (not v39) (not v29) v52 ))
(assert (or (not v39) v30 (not v52) ))
(assert (or (not v39) (not v30) v52 ))
(assert (or (not v40) (not v16) ))
(assert (or (not v40) v17 (not v54) ))
(assert (or (not v40) (not v17) v54 ))
(assert (or (not v40) v18 (not v54) ))
(assert (or (not v40) (not v18) v54 ))
(assert (or (not v40) (not v19) ))
(assert (or (not v40) (not v20) ))
(assert (or (not v40) v21 (not v54) ))
(assert (or (not v40) (not v21) v54 ))
(assert (or (not v40) v22 (not v54) ))
(assert (or (not v40) (not v22) v54 ))
(assert (or (not v40) v23 (not v53) ))
(assert (or (not v40) (not v23) v53 ))
(assert (or (not v40) v24 (not v53) ))
(assert (or (not v40) (not v24) v53 ))
(assert (or (not v40) v25 (not v52) ))
(assert (or (not v40) (not v25) v52 ))
(assert (or (not v40) v26 (not v52) ))
(assert (or (not v40) (not v26) v52 ))
(assert (or (not v40) v27 (not v53) ))
(assert (or (not v40) (not v27) v53 ))
(assert (or (not v40) v28 (not v53) ))
(assert (or (not v40) (not v28) v53 ))
(assert (or (not v40) v29 (not v52) ))
(assert (or (not v40) (not v29) v52 ))
(assert (or (not v40) v30 (not v52) ))
(assert (or (not v40) (not v30) v52 ))
(assert (or (not v41) (not v16) ))
(assert (or (not v41) v17 (not v54) ))
(assert (or (not v41) (not v17) v54 ))
(assert (or (not v41) v18 (not v54) ))
(assert (or (not v41) (not v18) v54 ))
(assert (or (not v41) v19 (not v53) ))
(assert (or (not v41) (not v19) v53 ))
(assert (or (not v41) v20 (not v53) ))
(assert (or (not v41) (not v20) v53 ))
(assert (or (not v41) v21 (not v52) ))
(assert (or (not v41) (not v21) v52 ))
(assert (or (not v41) v22 (not v52) ))
(assert (or (not v41) (not v22) v52 ))
(assert (or (not v41) (not v23) ))
(assert (or (not v41) (not v24) ))
(assert (or (not v41) v25 (not v54) ))
(assert (or (not v41) (not v25) v54 ))
(assert (or (not v41) v26 (not v54) ))
(assert (or (not v41) (not v26) v54 ))
(assert (or (not v41) v27 (not v53) ))
(assert (or (not v41) (not v27) v53 ))
(assert (or (not v41) v28 (not v53) ))
(assert (or (not v41) (not v28) v53 ))
(assert (or (not v41) v29 (not v52) ))
(assert (or (not v41) (not v29) v52 ))
(assert (or (not v41) v30 (not v52) ))
(assert (or (not v41) (not v30) v52 ))
(assert (or (not v42) v16 (not v54) ))
(assert (or (not v42) (not v16) v54 ))
(assert (or (not v42) (not v17) ))
(assert (or (not v42) v18 (not v54) ))
(assert (or (not v42) (not v18) v54 ))
(assert (or (not v42) (not v19) ))
(assert (or (not v42) v20 (not v54) ))
(assert (or (not v42) (not v20) v54 ))
(assert (or (not v42) (not v21) ))
(assert (or (not v42) v22 (not v54) ))
(assert (or (not v42) (not v22) v54 ))
(assert (or (not v42) v23 (not v53) ))
(assert (or (not v42) (not v23) v53 ))
(assert (or (not v42) v24 (not v52) ))
(assert (or (not v42) (not v24) v52 ))
(assert (or (not v42) v25 (not v53) ))
(assert (or (not v42) (not v25) v53 ))
(assert (or (not v42) v26 (not v52) ))
(assert (or (not v42) (not v26) v52 ))
(assert (or (not v42) v27 (not v53) ))
(assert (or (not v42) (not v27) v53 ))
(assert (or (not v42) v28 (not v52) ))
(assert (or (not v42) (not v28) v52 ))
(assert (or (not v42) v29 (not v53) ))
(assert (or (not v42) (not v29) v53 ))
(assert (or (not v42) v30 (not v52) ))
(assert (or (not v42) (not v30) v52 ))
(assert (or (not v43) v16 (not v54) ))
(assert (or (not v43) (not v16) v54 ))
(assert (or (not v43) (not v17) ))
(assert (or (not v43) v18 (not v54) ))
(assert (or (not v43) (not v18) v54 ))
(assert (or (not v43) v19 (not v53) ))
(assert (or (not v43) (not v19) v53 ))
(assert (or (not v43) v20 (not v52) ))
(assert (or (not v43) (not v20) v52 ))
(assert (or (not v43) v21 (not v53) ))
(assert (or (not v43) (not v21) v53 ))
(assert (or (not v43) v22 (not v52) ))
(assert (or (not v43) (not v22) v52 ))
(assert (or (not v43) (not v23) ))
(assert (or (not v43) v24 (not v54) ))
(assert (or (not v43) (not v24) v54 ))
(assert (or (not v43) (not v25) ))
(assert (or (not v43) v26 (not v54) ))
(assert (or (not v43) (not v26) v54 ))
(assert (or (not v43) v27 (not v53) ))
(assert (or (not v43) (not v27) v53 ))
(assert (or (not v43) v28 (not v52) ))
(assert (or (not v43) (not v28) v52 ))
(assert (or (not v43) v29 (not v53) ))
(assert (or (not v43) (not v29) v53 ))
(assert (or (not v43) v30 (not v52) ))
(assert (or (not v43) (not v30) v52 ))
(assert (or (not v44) v16 (not v54) ))
(assert (or (not v44) (not v16) v54 ))
(assert (or (not v44) v17 (not v53) ))
(assert (or (not v44) (not v17) v53 ))
(assert (or (not v44) v18 (not v52) ))
(assert (or (not v44) (not v18) v52 ))
(assert (or (not v44) (not v19) ))
(assert (or (not v44) v20 (not v54) ))
(assert (or (not v44) (not v20) v54 ))
(assert (or (not v44) v21 (not v53) ))
(assert (or (not v44) (not v21) v53 ))
(assert (or (not v44) v22 (not v52) ))
(assert (or (not v44) (not v22) v52 ))
(assert (or (not v44) (not v23) ))
(assert (or (not v44) v24 (not v54) ))
(assert (or (not v44) (not v24) v54 ))
(assert (or (not v44) v25 (not v53) ))
(assert (or (not v44) (not v25) v53 ))
(assert (or (not v44) v26 (not v52) ))
(assert (or (not v44) (not v26) v52 ))
(assert (or (not v44) (not v27) ))
(assert (or (not v44) v28 (not v54) ))
(assert (or (not v44) (not v28) v54 ))
(assert (or (not v44) v29 (not v53) ))
(assert (or (not v44) (not v29) v53 ))
(assert (or (not v44) v30 (not v52) ))
(assert (or (not v44) (not v30) v52 ))
(assert (or (not v45) v16 (not v1) (not v54) ))
(assert (or (not v45) (not v16) (not v1) v54 ))
(assert (or (not v45) (not v16) v1 ))
(assert (or (not v45) v17 (not v2) (not v54) ))
(assert (or (not v45) (not v17) (not v2) v54 ))
(assert (or (not v45) (not v17) v2 ))
(assert (or (not v45) v18 (not v3) (not v54) ))
(assert (or (not v45) (not v18) (not v3) v54 ))
(assert (or (not v45) (not v18) v3 ))
(assert (or (not v45) v19 (not v4) (not v54) ))
(assert (or (not v45) (not v19) (not v4) v54 ))
(assert (or (not v45) (not v19) v4 ))
(assert (or (not v45) v20 (not v5) (not v54) ))
(assert (or (not v45) (not v20) (not v5) v54 ))
(assert (or (not v45) (not v20) v5 ))
(assert (or (not v45) v21 (not v6) (not v54) ))
(assert (or (not v45) (not v21) (not v6) v54 ))
(assert (or (not v45) (not v21) v6 ))
(assert (or (not v45) v22 (not v7) (not v54) ))
(assert (or (not v45) (not v22) (not v7) v54 ))
(assert (or (not v45) (not v22) v7 ))
(assert (or (not v45) v23 v8 (not v53) ))
(assert (or (not v45) v23 (not v8) (not v52) ))
(assert (or (not v45) (not v23) v8 v53 ))
(assert (or (not v45) (not v23) (not v8) v52 ))
(assert (or (not v45) v24 v9 (not v53) ))
(assert (or (not v45) v24 (not v9) (not v52) ))
(assert (or (not v45) (not v24) v9 v53 ))
(assert (or (not v45) (not v24) (not v9) v52 ))
(assert (or (not v45) v25 v10 (not v53) ))
(assert (or (not v45) v25 (not v10) (not v52) ))
(assert (or (not v45) (not v25) v10 v53 ))
(assert (or (not v45) (not v25) (not v10) v52 ))
(assert (or (not v45) v26 v11 (not v53) ))
(assert (or (not v45) v26 (not v11) (not v52) ))
(assert (or (not v45) (not v26) v11 v53 ))
(assert (or (not v45) (not v26) (not v11) v52 ))
(assert (or (not v45) v27 v12 (not v53) ))
(assert (or (not v45) v27 (not v12) (not v52) ))
(assert (or (not v45) (not v27) v12 v53 ))
(assert (or (not v45) (not v27) (not v12) v52 ))
(assert (or (not v45) v28 v13 (not v53) ))
(assert (or (not v45) v28 (not v13) (not v52) ))
(assert (or (not v45) (not v28) v13 v53 ))
(assert (or (not v45) (not v28) (not v13) v52 ))
(assert (or (not v45) v29 v14 (not v53) ))
(assert (or (not v45) v29 (not v14) (not v52) ))
(assert (or (not v45) (not v29) v14 v53 ))
(assert (or (not v45) (not v29) (not v14) v52 ))
(assert (or (not v45) v30 v15 (not v53) ))
(assert (or (not v45) v30 (not v15) (not v52) ))
(assert (or (not v45) (not v30) v15 v53 ))
(assert (or (not v45) (not v30) (not v15) v52 ))
(assert (or (not v46) v16 (not v1) (not v54) ))
(assert (or (not v46) (not v16) (not v1) v54 ))
(assert (or (not v46) (not v16) v1 ))
(assert (or (not v46) v17 (not v2) (not v54) ))
(assert (or (not v46) (not v17) (not v2) v54 ))
(assert (or (not v46) (not v17) v2 ))
(assert (or (not v46) v18 (not v3) (not v54) ))
(assert (or (not v46) (not v18) (not v3) v54 ))
(assert (or (not v46) (not v18) v3 ))
(assert (or (not v46) v19 v4 (not v53) ))
(assert (or (not v46) v19 (not v4) (not v52) ))
(assert (or (not v46) (not v19) v4 v53 ))
(assert (or (not v46) (not v19) (not v4) v52 ))
(assert (or (not v46) v20 v5 (not v53) ))
(assert (or (not v46) v20 (not v5) (not v52) ))
(assert (or (not v46) (not v20) v5 v53 ))
(assert (or (not v46) (not v20) (not v5) v52 ))
(assert (or (not v46) v21 v6 (not v53) ))
(assert (or (not v46) v21 (not v6) (not v52) ))
(assert (or (not v46) (not v21) v6 v53 ))
(assert (or (not v46) (not v21) (not v6) v52 ))
(assert (or (not v46) v22 v7 (not v53) ))
(assert (or (not v46) v22 (not v7) (not v52) ))
(assert (or (not v46) (not v22) v7 v53 ))
(assert (or (not v46) (not v22) (not v7) v52 ))
(assert (or (not v46) v23 (not v8) (not v54) ))
(assert (or (not v46) (not v23) (not v8) v54 ))
(assert (or (not v46) (not v23) v8 ))
(assert (or (not v46) v24 (not v9) (not v54) ))
(assert (or (not v46) (not v24) (not v9) v54 ))
(assert (or (not v46) (not v24) v9 ))
(assert (or (not v46) v25 (not v10) (not v54) ))
(assert (or (not v46) (not v25) (not v10) v54 ))
(assert (or (not v46) (not v25) v10 ))
(assert (or (not v46) v26 (not v11) (not v54) ))
(assert (or (not v46) (not v26) (not v11) v54 ))
(assert (or (not v46) (not v26) v11 ))
(assert (or (not v46) v27 v12 (not v53) ))
(assert (or (not v46) v27 (not v12) (not v52) ))
(assert (or (not v46) (not v27) v12 v53 ))
(assert (or (not v46) (not v27) (not v12) v52 ))
(assert (or (not v46) v28 v13 (not v53) ))
(assert (or (not v46) v28 (not v13) (not v52) ))
(assert (or (not v46) (not v28) v13 v53 ))
(assert (or (not v46) (not v28) (not v13) v52 ))
(assert (or (not v46) v29 v14 (not v53) ))
(assert (or (not v46) v29 (not v14) (not v52) ))
(assert (or (not v46) (not v29) v14 v53 ))
(assert (or (not v46) (not v29) (not v14) v52 ))
(assert (or (not v46) v30 v15 (not v53) ))
(assert (or (not v46) v30 (not v15) (not v52) ))
(assert (or (not v46) (not v30) v15 v53 ))
(assert (or (not v46) (not v30) (not v15) v52 ))
(assert (or (not v47) v16 (not v1) (not v54) ))
(assert (or (not v47) (not v16) (not v1) v54 ))
(assert (or (not v47) (not v16) v1 ))
(assert (or (not v47) v17 v2 (not v53) ))
(assert (or (not v47) v17 (not v2) (not v52) ))
(assert (or (not v47) (not v17) v2 v53 ))
(assert (or (not v47) (not v17) (not v2) v52 ))
(assert (or (not v47) v18 v3 (not v53) ))
(assert (or (not v47) v18 (not v3) (not v52) ))
(assert (or (not v47) (not v18) v3 v53 ))
(assert (or (not v47) (not v18) (not v3) v52 ))
(assert (or (not v47) v19 (not v4) (not v54) ))
(assert (or (not v47) (not v19) (not v4) v54 ))
(assert (or (not v47) (not v19) v4 ))
(assert (or (not v47) v20 (not v5) (not v54) ))
(assert (or (not v47) (not v20) (not v5) v54 ))
(assert (or (not v47) (not v20) v5 ))
(assert (or (not v47) v21 v6 (not v53) ))
(assert (or (not v47) v21 (not v6) (not v52) ))
(assert (or (not v47) (not v21) v6 v53 ))
(assert (or (not v47) (not v21) (not v6) v52 ))
(assert (or (not v47) v22 v7 (not v53) ))
(assert (or (not v47) v22 (not v7) (not v52) ))
(assert (or (not v47) (not v22) v7 v53 ))
(assert (or (not v47) (not v22) (not v7) v52 ))
(assert (or (not v47) v23 (not v8) (not v54) ))
(assert (or (not v47) (not v23) (not v8) v54 ))
(assert (or (not v47) (not v23) v8 ))
(assert (or (not v47) v24 (not v9) (not v54) ))
(assert (or (not v47) (not v24) (not v9) v54 ))
(assert (or (not v47) (not v24) v9 ))
(assert (or (not v47) v25 v10 (not v53) ))
(assert (or (not v47) v25 (not v10) (not v52) ))
(assert (or (not v47) (not v25) v10 v53 ))
(assert (or (not v47) (not v25) (not v10) v52 ))
(assert (or (not v47) v26 v11 (not v53) ))
(assert (or (not v47) v26 (not v11) (not v52) ))
(assert (or (not v47) (not v26) v11 v53 ))
(assert (or (not v47) (not v26) (not v11) v52 ))
(assert (or (not v47) v27 (not v12) (not v54) ))
(assert (or (not v47) (not v27) (not v12) v54 ))
(assert (or (not v47) (not v27) v12 ))
(assert (or (not v47) v28 (not v13) (not v54) ))
(assert (or (not v47) (not v28) (not v13) v54 ))
(assert (or (not v47) (not v28) v13 ))
(assert (or (not v47) v29 v14 (not v53) ))
(assert (or (not v47) v29 (not v14) (not v52) ))
(assert (or (not v47) (not v29) v14 v53 ))
(assert (or (not v47) (not v29) (not v14) v52 ))
(assert (or (not v47) v30 v15 (not v53) ))
(assert (or (not v47) v30 (not v15) (not v52) ))
(assert (or (not v47) (not v30) v15 v53 ))
(assert (or (not v47) (not v30) (not v15) v52 ))
(assert (or (not v48) v16 v1 (not v53) ))
(assert (or (not v48) v16 (not v1) (not v52) ))
(assert (or (not v48) (not v16) v1 v53 ))
(assert (or (not v48) (not v16) (not v1) v52 ))
(assert (or (not v48) v17 (not v2) (not v54) ))
(assert (or (not v48) (not v17) (not v2) v54 ))
(assert (or (not v48) (not v17) v2 ))
(assert (or (not v48) v18 v3 (not v53) ))
(assert (or (not v48) v18 (not v3) (not v52) ))
(assert (or (not v48) (not v18) v3 v53 ))
(assert (or (not v48) (not v18) (not v3) v52 ))
(assert (or (not v48) v19 (not v4) (not v54) ))
(assert (or (not v48) (not v19) (not v4) v54 ))
(assert (or (not v48) (not v19) v4 ))
(assert (or (not v48) v20 v5 (not v53) ))
(assert (or (not v48) v20 (not v5) (not v52) ))
(assert (or (not v48) (not v20) v5 v53 ))
(assert (or (not v48) (not v20) (not v5) v52 ))
(assert (or (not v48) v21 (not v6) (not v54) ))
(assert (or (not v48) (not v21) (not v6) v54 ))
(assert (or (not v48) (not v21) v6 ))
(assert (or (not v48) v22 v7 (not v53) ))
(assert (or (not v48) v22 (not v7) (not v52) ))
(assert (or (not v48) (not v22) v7 v53 ))
(assert (or (not v48) (not v22) (not v7) v52 ))
(assert (or (not v48) v23 (not v8) (not v54) ))
(assert (or (not v48) (not v23) (not v8) v54 ))
(assert (or (not v48) (not v23) v8 ))
(assert (or (not v48) v24 v9 (not v53) ))
(assert (or (not v48) v24 (not v9) (not v52) ))
(assert (or (not v48) (not v24) v9 v53 ))
(assert (or (not v48) (not v24) (not v9) v52 ))
(assert (or (not v48) v25 (not v10) (not v54) ))
(assert (or (not v48) (not v25) (not v10) v54 ))
(assert (or (not v48) (not v25) v10 ))
(assert (or (not v48) v26 v11 (not v53) ))
(assert (or (not v48) v26 (not v11) (not v52) ))
(assert (or (not v48) (not v26) v11 v53 ))
(assert (or (not v48) (not v26) (not v11) v52 ))
(assert (or (not v48) v27 (not v12) (not v54) ))
(assert (or (not v48) (not v27) (not v12) v54 ))
(assert (or (not v48) (not v27) v12 ))
(assert (or (not v48) v28 v13 (not v53) ))
(assert (or (not v48) v28 (not v13) (not v52) ))
(assert (or (not v48) (not v28) v13 v53 ))
(assert (or (not v48) (not v28) (not v13) v52 ))
(assert (or (not v48) v29 (not v14) (not v54) ))
(assert (or (not v48) (not v29) (not v14) v54 ))
(assert (or (not v48) (not v29) v14 ))
(assert (or (not v48) v30 v15 (not v53) ))
(assert (or (not v48) v30 (not v15) (not v52) ))
(assert (or (not v48) (not v30) v15 v53 ))
(assert (or (not v48) (not v30) (not v15) v52 ))
(assert (or (not v31) (not v1) ))
(assert (or (not v31) (not v2) ))
(assert (or (not v31) (not v3) ))
(assert (or (not v31) (not v4) ))
(assert (or (not v31) (not v5) ))
(assert (or (not v31) (not v6) ))
(assert (or (not v31) (not v7) ))
(assert (or (not v31) (not v8) ))
(assert (or (not v31) (not v9) ))
(assert (or (not v31) (not v10) ))
(assert (or (not v31) (not v11) ))
(assert (or (not v31) (not v12) ))
(assert (or (not v31) (not v13) ))
(assert (or (not v31) v14 ))
(assert (or (not v31) v15 ))
(assert (or (not v32) (not v16) ))
(assert (or (not v32) (not v17) ))
(assert (or (not v32) (not v18) ))
(assert (or (not v32) (not v19) ))
(assert (or (not v32) (not v20) ))
(assert (or (not v32) (not v21) ))
(assert (or (not v32) (not v22) ))
(assert (or (not v32) (not v23) ))
(assert (or (not v32) (not v24) ))
(assert (or (not v32) (not v25) ))
(assert (or (not v32) (not v26) ))
(assert (or (not v32) (not v27) ))
(assert (or (not v32) (not v28) ))
(assert (or (not v32) v29 ))
(assert (or (not v32) v30 ))
(assert (or v31 v32 ))
(assert (or v33 v34 v35 v36 v37 v38 ))
(assert (or v39 v40 v41 v42 v43 v44 v45 v46 v47 v48 ))
(declare-fun r1 () Real)
(declare-fun r2 () Real)
(declare-fun r3 () Real)
(declare-fun r4 () Real)
(declare-fun r5 () Real)
(declare-fun r6 () Real)
(declare-fun r () Real)
(assert (= r1 0.800000))
(assert (= r2 0.800000))
(assert (= r3 0.800000))
(assert (= r4 0.800000))
(assert (= r5  (ite v33(+ 0 (+ (ite v49 (* r1 r2) 0) (+ (ite v50 (* r1 (- 1 r2)) 0) (ite v51 (* (- 1 r1) r2) 0)))) (ite v34(+ 0 (+ (ite v49 (* r1 r3) 0) (+ (ite v50 (* r1 (- 1 r3)) 0) (ite v51 (* (- 1 r1) r3) 0)))) (ite v35(+ 0 (+ (ite v49 (* r2 r3) 0) (+ (ite v50 (* r2 (- 1 r3)) 0) (ite v51 (* (- 1 r2) r3) 0)))) (ite v36(+ 0 (+ (ite v49 (* r1 r4) 0) (+ (ite v50 (* r1 (- 1 r4)) 0) (ite v51 (* (- 1 r1) r4) 0)))) (ite v37(+ 0 (+ (ite v49 (* r2 r4) 0) (+ (ite v50 (* r2 (- 1 r4)) 0) (ite v51 (* (- 1 r2) r4) 0)))) (ite v38(+ 0 (+ (ite v49 (* r3 r4) 0) (+ (ite v50 (* r3 (- 1 r4)) 0) (ite v51 (* (- 1 r3) r4) 0)))) 0))))))))
(assert (not (= r5 0)))
(assert (= r6  (ite v39(+ 0 (+ (ite v52 (* r1 r2) 0) (+ (ite v53 (* r1 (- 1 r2)) 0) (ite v54 (* (- 1 r1) r2) 0)))) (ite v40(+ 0 (+ (ite v52 (* r1 r3) 0) (+ (ite v53 (* r1 (- 1 r3)) 0) (ite v54 (* (- 1 r1) r3) 0)))) (ite v41(+ 0 (+ (ite v52 (* r2 r3) 0) (+ (ite v53 (* r2 (- 1 r3)) 0) (ite v54 (* (- 1 r2) r3) 0)))) (ite v42(+ 0 (+ (ite v52 (* r1 r4) 0) (+ (ite v53 (* r1 (- 1 r4)) 0) (ite v54 (* (- 1 r1) r4) 0)))) (ite v43(+ 0 (+ (ite v52 (* r2 r4) 0) (+ (ite v53 (* r2 (- 1 r4)) 0) (ite v54 (* (- 1 r2) r4) 0)))) (ite v44(+ 0 (+ (ite v52 (* r3 r4) 0) (+ (ite v53 (* r3 (- 1 r4)) 0) (ite v54 (* (- 1 r3) r4) 0)))) (ite v45(+ 0 (+ (ite v52 (* r1 r5) 0) (+ (ite v53 (* r1 (- 1 r5)) 0) (ite v54 (* (- 1 r1) r5) 0)))) (ite v46(+ 0 (+ (ite v52 (* r2 r5) 0) (+ (ite v53 (* r2 (- 1 r5)) 0) (ite v54 (* (- 1 r2) r5) 0)))) (ite v47(+ 0 (+ (ite v52 (* r3 r5) 0) (+ (ite v53 (* r3 (- 1 r5)) 0) (ite v54 (* (- 1 r3) r5) 0)))) (ite v48(+ 0 (+ (ite v52 (* r4 r5) 0) (+ (ite v53 (* r4 (- 1 r5)) 0) (ite v54 (* (- 1 r4) r5) 0)))) 0))))))))))))
(assert (not (= r6 0)))
(assert (= r ( / (+ 0  (* r5 (- 1 r5)) (* r6 (- 1 r6))) 2)))
(assert (< r 0.200000))
(check-sat)
(get-value (v1 v2 v3 v4 v5 v6 v7 v8 v9 v10 v11 v12 v13 v14 v15 v16 v17 v18 v19 v20 v21 v22 v23 v24 v25 v26 v27 v28 v29 v30 v31 v32 v33 v34 v35 v36 v37 v38 v39 v40 v41 v42 v43 v44 v45 v46 v47 v48 v49 v50 v51 v52 v53 v54 ))
